61
100
70	15
69	19
68	9
67	24
66	18
65	16
64	16
63	9
62	21
61	20
60	15
59	15
58	15
57	16
56	15
55	20
54	11
53	16
52	17
51	13
50	12
49	17
48	11
47	15
46	16
45	17
44	15
43	13
42	16
41	19
40	14
39	19
38	11
37	13
36	25
35	14
34	17
33	16
32	8
31	22
30	19
29	19
28	21
27	19
26	11
25	17
24	13
23	18
22	19
21	16
20	17
19	23
18	15
17	16
16	26
15	18
14	14
13	22
12	24
11	12
10	11
